% demand
num_movements = 19;
loading_factor = [1400, 1200, 1800, 800, 1550, 1900, 1500, 1800, 1100, 1200, 900, 2000, 1400, 1150, 2000, 950, 1150, 2000, 900];
pickup_time = [0, 0, 0, 0, 0, 1, 1, 3, 3, 4, 4, 9, 9, 9, 10, 10, 10, 10, 10];
delivery_time = [2, 8, 1, 8, 1, 3, 3, 7, 7, 10, 9, 10, 10, 10, 11, 11, 12, 11, 13];

% transporter definition
total_capacity = 7000;
num_decks = 3;
capacity = [3000, 1000, 3000];

% ways out of decks
num_ways_out = 1;
paths_out = array3d(decks, ways_out, decks, [
% ways out of deck d1
2, 3, 0, 

% ways out of deck d2
3, 0, 0, 

% ways out of deck d3
0, 0, 0,	

]);

